letting n =  10
letting blocks =  [[1, 3], [1, 7], [2, 5], [2, 7], [2, 10], [3, 8], [4, 1], [4, 6], [4, 7], [4, 8], [5, 2], [5, 4], [5, 8], [5, 9], [6, 7], [6, 8], [7, 5], [8, 1], [8, 2], [8, 5], [8, 6], [8, 7], [8, 10], [9, 4], [9, 6], [9, 8], [10, 4], [10, 10]]
